% Strimko Monthly #02
n = 7;
streams = array2d(1..n, 1..n, [
        1,1,2,2,2,2,2,
        1,1,2,3,3,3,2,
        1,4,1,3,3,5,5,
        4,4,3,1,3,5,5,
        4,6,6,6,7,7,5,
        6,4,6,4,5,5,7,
        6,6,4,7,7,7,7
]);

num_placed = 10;
placed = array2d(1..num_placed, 1..3, [
                    2,1,1,
                    2,3,7,
                    2,5,6,
                    2,7,4,
                    3,2,7,
                    3,6,1,
                    4,1,4,
                    4,7,5,
                    5,2,2,
                    5,6,6
]);
